105573
82,22,44,68,59,53,31,24,48,19,5,21,54,46,45,73,64,29,10,1,13,37,18,65,50,4,63,39,52,41,78,61,6,15,69,25,42,55,23,12,3,57,34,49,47,60,43,81,72,51,2,30,79,83,8,28,35,38,16,11,33,27,7,56,17,77,20,67,76,14,70,62,80,26,36,66,71,9,58,74,32,40,75,82